;symbolic execution tree
(push)
(assert (le x0 soot.coffi.Code_attribute))
(check-sat)
(push)
(assert (not (le x0 soot.coffi.Exception_attribute)))
(check-sat)
(push)
(assert (not (le x0 soot.coffi.Synthetic_attribute)))
(check-sat)
(pop)
(push)
(assert (le x0 soot.coffi.Synthetic_attribute))
(check-sat)
(pop)
(pop)
(push)
(assert (le x0 soot.coffi.Exception_attribute))
(check-sat)
(pop)
(push)
(assert (le x0 soot.coffi.Code_attribute))
(check-sat)
(push)
(assert (not (le x0 soot.coffi.Exception_attribute)))
(check-sat)
(push)
(assert (not (le x0 soot.coffi.Synthetic_attribute)))
(check-sat)
(push)
(assert (not (le x0 soot.coffi.Deprecated_attribute)))
(check-sat)
(pop)
(push)
(assert (le x0 soot.coffi.Deprecated_attribute))
(check-sat)
(pop)
(pop)
(push)
(assert (le x0 soot.coffi.Synthetic_attribute))
(check-sat)
(pop)
(pop)
(push)
(assert (le x0 soot.coffi.Exception_attribute))
(check-sat)
(pop)
(push)
(assert (not (le x0 soot.coffi.Exception_attribute)))
(check-sat)
(pop)
(push)
(assert (le x0 soot.coffi.Exception_attribute))
(check-sat)
(pop)
(push)
(assert (not (le x0 soot.coffi.Exception_attribute)))
(check-sat)
(pop)
(push)
(assert (le x0 soot.coffi.Exception_attribute))
(check-sat)
(pop)
(push)
(assert (not (le x0 soot.coffi.Exception_attribute)))
(check-sat)
(pop)
(push)
(assert (le x0 soot.coffi.Exception_attribute))
(check-sat)
(pop)
(push)
(assert (not (le x0 soot.coffi.Exception_attribute)))
(check-sat)
(pop)
(push)
(assert (le x0 soot.coffi.Exception_attribute))
(check-sat)
(pop)
(push)
(assert (not (le x0 soot.coffi.Exception_attribute)))
(check-sat)
(pop)
(push)
(assert (le x0 soot.coffi.Exception_attribute))
(check-sat)
(pop)
(push)
(assert (not (le x0 soot.coffi.Exception_attribute)))
(check-sat)
(push)
(assert (not (le x0 soot.coffi.Synthetic_attribute)))
(check-sat)
(pop)
(push)
(assert (le x0 soot.coffi.Synthetic_attribute))
(check-sat)
(pop)
(pop)
(push)
(assert (le x0 soot.coffi.Exception_attribute))
(check-sat)
(pop)
(pop)
(push)
(assert (not (le x0 soot.coffi.Code_attribute)))
(check-sat)
(pop)
(push)
(assert (not (le x0 soot.coffi.Exception_attribute)))
(check-sat)
(push)
(assert (not (le x0 soot.coffi.Synthetic_attribute)))
(check-sat)
(pop)
(push)
(assert (le x0 soot.coffi.Synthetic_attribute))
(check-sat)
(pop)
(pop)
(push)
(assert (le x0 soot.coffi.Exception_attribute))
(check-sat)
(pop)
(push)
(assert (not (le x0 soot.coffi.Exception_attribute)))
(check-sat)
(push)
(assert (not (le x0 soot.coffi.Synthetic_attribute)))
(check-sat)
(push)
(assert (not (le x0 soot.coffi.Deprecated_attribute)))
(check-sat)
(pop)
(push)
(assert (le x0 soot.coffi.Deprecated_attribute))
(check-sat)
(pop)
(pop)
(push)
(assert (le x0 soot.coffi.Synthetic_attribute))
(check-sat)
(pop)
(pop)
(push)
(assert (le x0 soot.coffi.Exception_attribute))
(check-sat)
(pop)
(push)
(assert (le x0 soot.coffi.Code_attribute))
(check-sat)
(push)
(assert (le x0 soot.coffi.Code_attribute))
(check-sat)
(push)
(assert (le x0 soot.coffi.Code_attribute))
(check-sat)
(pop)
(push)
(assert (not (le x0 soot.coffi.Code_attribute)))
(check-sat)
(pop)
(push)
(assert (not (le x0 soot.coffi.Exception_attribute)))
(check-sat)
(pop)
(push)
(assert (le x0 soot.coffi.Exception_attribute))
(check-sat)
(pop)
(push)
(assert (not (le x0 soot.coffi.Exception_attribute)))
(check-sat)
(pop)
(push)
(assert (le x0 soot.coffi.Exception_attribute))
(check-sat)
(pop)
(pop)
(push)
(assert (not (le x0 soot.coffi.Code_attribute)))
(check-sat)
(pop)
(push)
(assert (le x0 soot.coffi.Code_attribute))
(check-sat)
(pop)
(push)
(assert (not (le x0 soot.coffi.Code_attribute)))
(check-sat)
(pop)
(pop)
(push)
(assert (not (le x0 soot.coffi.Code_attribute)))
(check-sat)
(pop)
(push)
(assert (not (le x0 soot.coffi.Exception_attribute)))
(check-sat)
(pop)
(push)
(assert (le x0 soot.coffi.Exception_attribute))
(check-sat)
(pop)
(push)
(assert (not (le x0 soot.coffi.Exception_attribute)))
(check-sat)
(push)
(assert (not (le x0 soot.coffi.Synthetic_attribute)))
(check-sat)
(push)
(assert (not (le x0 soot.coffi.Deprecated_attribute)))
(check-sat)
(pop)
(push)
(assert (le x0 soot.coffi.Deprecated_attribute))
(check-sat)
(pop)
(push)
(assert (not (le x0 soot.coffi.Deprecated_attribute)))
(check-sat)
(pop)
(push)
(assert (le x0 soot.coffi.Deprecated_attribute))
(check-sat)
(pop)
(pop)
(push)
(assert (le x0 soot.coffi.Synthetic_attribute))
(check-sat)
(pop)
(push)
(assert (not (le x0 soot.coffi.Synthetic_attribute)))
(check-sat)
(pop)
(push)
(assert (le x0 soot.coffi.Synthetic_attribute))
(check-sat)
(pop)
(push)
(assert (not (le x0 soot.coffi.Synthetic_attribute)))
(check-sat)
(push)
(assert (not (le x0 soot.coffi.Deprecated_attribute)))
(check-sat)
(pop)
(push)
(assert (le x0 soot.coffi.Deprecated_attribute))
(check-sat)
(pop)
(pop)
(push)
(assert (le x0 soot.coffi.Synthetic_attribute))
(check-sat)
(pop)
(pop)
(push)
(assert (le x0 soot.coffi.Exception_attribute))
(check-sat)
(pop)
(push)
(assert (not (le x0 soot.coffi.Exception_attribute)))
(check-sat)
(pop)
(push)
(assert (le x0 soot.coffi.Exception_attribute))
(check-sat)
(pop)
(push)
(assert (le x0 soot.coffi.Code_attribute))
(check-sat)
(push)
(assert (not (le x0 soot.coffi.Exception_attribute)))
(check-sat)
(push)
(assert (not (le x0 soot.coffi.Synthetic_attribute)))
(check-sat)
(pop)
(push)
(assert (le x0 soot.coffi.Synthetic_attribute))
(check-sat)
(pop)
(push)
(assert (not (le x0 soot.coffi.Synthetic_attribute)))
(check-sat)
(pop)
(push)
(assert (le x0 soot.coffi.Synthetic_attribute))
(check-sat)
(pop)
(pop)
(push)
(assert (le x0 soot.coffi.Exception_attribute))
(check-sat)
(pop)
(push)
(assert (not (le x0 soot.coffi.Exception_attribute)))
(check-sat)
(push)
(assert (not (le x0 soot.coffi.Synthetic_attribute)))
(check-sat)
(pop)
(push)
(assert (le x0 soot.coffi.Synthetic_attribute))
(check-sat)
(pop)
(pop)
(push)
(assert (le x0 soot.coffi.Exception_attribute))
(check-sat)
(pop)
(push)
(assert (le x0 soot.coffi.Code_attribute))
(check-sat)
(push)
(assert (not (le x0 soot.coffi.Exception_attribute)))
(check-sat)
(pop)
(push)
(assert (le x0 soot.coffi.Exception_attribute))
(check-sat)
(pop)
(pop)
(push)
(assert (not (le x0 soot.coffi.Code_attribute)))
(check-sat)
(pop)
(pop)
(push)
(assert (not (le x0 soot.coffi.Code_attribute)))
(check-sat)
(pop)
(push)
(assert (not (le x0 soot.coffi.Exception_attribute)))
(check-sat)
(push)
(assert (not (le x0 soot.coffi.Synthetic_attribute)))
(check-sat)
(push)
(assert (not (le x0 soot.coffi.Deprecated_attribute)))
(check-sat)
(pop)
(push)
(assert (le x0 soot.coffi.Deprecated_attribute))
(check-sat)
(pop)
(push)
(assert (not (le x0 soot.coffi.Deprecated_attribute)))
(check-sat)
(pop)
(push)
(assert (le x0 soot.coffi.Deprecated_attribute))
(check-sat)
(pop)
(push)
(assert (not (le x0 soot.coffi.Deprecated_attribute)))
(check-sat)
(pop)
(push)
(assert (le x0 soot.coffi.Deprecated_attribute))
(check-sat)
(pop)
(pop)
(push)
(assert (le x0 soot.coffi.Synthetic_attribute))
(check-sat)
(pop)
(pop)
(push)
(assert (le x0 soot.coffi.Exception_attribute))
(check-sat)
(pop)
(push)
(assert (le x0 soot.coffi.Code_attribute))
(check-sat)
(push)
(assert (le x0 soot.coffi.Code_attribute))
(check-sat)
(push)
(assert (le x0 soot.coffi.Code_attribute))
(check-sat)
(push)
(assert (not (le x0 soot.coffi.Exception_attribute)))
(check-sat)
(pop)
(push)
(assert (le x0 soot.coffi.Exception_attribute))
(check-sat)
(pop)
(pop)
(push)
(assert (not (le x0 soot.coffi.Code_attribute)))
(check-sat)
(pop)
(push)
(assert (not (le x0 soot.coffi.Exception_attribute)))
(check-sat)
(pop)
(push)
(assert (le x0 soot.coffi.Exception_attribute))
(check-sat)
(pop)
(pop)
(push)
(assert (not (le x0 soot.coffi.Code_attribute)))
(check-sat)
(pop)
(push)
(assert (le x0 soot.coffi.Code_attribute))
(check-sat)
(push)
(assert (not (le x0 soot.coffi.Exception_attribute)))
(check-sat)
(pop)
(push)
(assert (le x0 soot.coffi.Exception_attribute))
(check-sat)
(pop)
(push)
(assert (le x0 soot.coffi.Code_attribute))
(check-sat)
(pop)
(push)
(assert (not (le x0 soot.coffi.Code_attribute)))
(check-sat)
(pop)
(push)
(assert (le x0 soot.coffi.Code_attribute))
(check-sat)
(push)
(assert (not (le x0 soot.coffi.Exception_attribute)))
(check-sat)
(pop)
(push)
(assert (le x0 soot.coffi.Exception_attribute))
(check-sat)
(pop)
(pop)
(push)
(assert (not (le x0 soot.coffi.Code_attribute)))
(check-sat)
(pop)
(pop)
(push)
(assert (not (le x0 soot.coffi.Code_attribute)))
(check-sat)
(pop)
(pop)
(push)
(assert (not (le x0 soot.coffi.Code_attribute)))
(check-sat)
(pop)
(push)
(assert (not (le x0 soot.coffi.Exception_attribute)))
(check-sat)
(pop)
(push)
(assert (le x0 soot.coffi.Exception_attribute))
(check-sat)
(pop)
(pop)
(push)
(assert (not (le x0 soot.coffi.Code_attribute)))
(check-sat)
(push)
(assert (le x0 soot.coffi.Code_attribute))
(check-sat)
(pop)
(push)
(assert (not (le x0 soot.coffi.Code_attribute)))
(check-sat)
(pop)
(push)
(assert (le x0 soot.coffi.Code_attribute))
(check-sat)
(pop)
(push)
(assert (not (le x0 soot.coffi.Code_attribute)))
(check-sat)
(push)
(assert (le x0 soot.coffi.Code_attribute))
(check-sat)
(pop)
(push)
(assert (not (le x0 soot.coffi.Code_attribute)))
(check-sat)
(pop)
(pop)
(push)
(assert (not (le x0 soot.coffi.Exception_attribute)))
(check-sat)
(push)
(assert (not (le x0 soot.coffi.Synthetic_attribute)))
(check-sat)
(pop)
(push)
(assert (le x0 soot.coffi.Synthetic_attribute))
(check-sat)
(pop)
(push)
(assert (not (le x0 soot.coffi.Synthetic_attribute)))
(check-sat)
(pop)
(push)
(assert (le x0 soot.coffi.Synthetic_attribute))
(check-sat)
(pop)
(push)
(assert (not (le x0 soot.coffi.Synthetic_attribute)))
(check-sat)
(pop)
(push)
(assert (le x0 soot.coffi.Synthetic_attribute))
(check-sat)
(push)
(assert (not (le x0 soot.coffi.Deprecated_attribute)))
(check-sat)
(push)
(assert (not (le x0 soot.coffi.Signature_attribute)))
(check-sat)
(pop)
(push)
(assert (le x0 soot.coffi.Signature_attribute))
(check-sat)
(pop)
(pop)
(push)
(assert (le x0 soot.coffi.Deprecated_attribute))
(check-sat)
(pop)
(pop)
(push)
(assert (not (le x0 soot.coffi.Synthetic_attribute)))
(check-sat)
(pop)
(push)
(assert (le x0 soot.coffi.Synthetic_attribute))
(check-sat)
(pop)
(pop)
(push)
(assert (le x0 soot.coffi.Exception_attribute))
(check-sat)
(push)
(assert (not (le x0 soot.coffi.Synthetic_attribute)))
(check-sat)
(pop)
(push)
(assert (le x0 soot.coffi.Synthetic_attribute))
(check-sat)
(pop)
(push)
(assert (not (le x0 soot.coffi.Synthetic_attribute)))
(check-sat)
(pop)
(push)
(assert (le x0 soot.coffi.Synthetic_attribute))
(check-sat)
(pop)
(pop)
(pop)
